NAME : TW_45_seed_None_id_1
TYPE : CVRPTW
DIMENSION : 11
EDGE_WEIGHT_TYPE : EUC_2D
CAPACITY : 25
SERVICE_TIME : 100
LATE_COEFF : 0
NODE_COORD_SECTION
1	717	459
2	531	976
3	947	615
4	581	952
5	823	593
6	664	204
7	488	125
8	47	967
9	650	800
10	764	838
11	355	110
DEMAND_SECTION
1	0
2	3
3	7
4	5
5	1
6	5
7	8
8	5
9	1
10	1
11	5
TIME_WINDOW_SECTION
1	0	10000
2	0	10000
3	0	10000
4	0	10000
5	0	10000
6	0	10000
7	0	10000
8	0	10000
9	0	10000
10	0	10000
11	0	10000
DEPOT_SECTION
1
-1
EOF
